p cnf 11 14
3 -1 10 7 0
-8 9 4 -3 -10 -11 7 0
3 -8 -9 -7 6 -10 1 -11 -2 -5 4 0
7 11 -4 -8 -10 3 6 0
1 2 7 6 0
-6 4 -9 -10 -11 3 5 -7 0
1 3 -4 -8 -11 9 10 5 -6 0
-5 -3 1 0
3 -10 6 2 0
-11 5 -3 -10 0
7 6 11 0
7 10 -6 -5 0
9 10 -5 7 6 2 3 -8 11 4 0
5 2 6 0
